1000 100
19 4
127 251
420 471
158 53
262 33
82 487
401 357
376 220
352 472
445 343
310 445
17 316
486 102
476 4
109 337
484 239
140 177
388 380
329 174
418 407
26 39
87 483
185 161
186 65
405 34
436 356
22 123
375 417
421 47
65 184
263 30
498 274
381 48
347 289
176 79
260 409
95 260
180 162
221 431
499 448
487 237
437 290
208 248
193 420
428 315
50 240
286 377
240 472
17 38
342 80
358 363
188 348
415 335
165 170
344 297
301 333
498 325
302 406
128 344
198 83
171 410
206 30
214 212
98 267
273 295
375 421
332 495
98 405
230 37
316 145
2 446
148 223
369 130
447 121
218 108
456 387
439 378
51 15
13 453
494 484
460 263
33 436
288 74
61 117
69 196
320 57
307 470
336 16
106 217
34 385
413 237
247 292
201 340
212 137
389 431
384 41
34 333
308 400
109 225
227 122
